\ This file was automatically generated by Zimpl
\ var w1 <= 0;
\ var w2 >= 0;
\ maximize Z :      2*w1 - 3*w2;
\ subto r1:     1*w1 - 2*w2 >= 2;
\ subto r2:     2*w1 + 1*w2 >= 3;
\ subto r3:     3*w1 - 1*w2 >= 5;
\ subto r4:     1*w1 + 3*w2 >= 6;
\Problem name: pd
Maximize
 Z:  +2 w1 -3 w2
Subject to
 r1_1:
  -2 w2 + w1 >= 2
 r2_1:
  + w2 +2 w1 >= 3
 r3_1:
  - w2 +3 w1 >= 5
 r4_1:
  +3 w2 + w1 >= 6
Bounds
 w1 = 0
 0 <= w2 <= +inf
End
